Cost: 1274
0-39-38-35-32-27-28-25-26-24-23-22-18-13-15-17-31-0
0-3-4-6-8-9-7-43-11-10-14-19-21-44-1-2-0
Cost: 1274
0-39-38-35-32-27-28-25-26-24-23-22-18-13-15-17-1-0
0-3-4-6-8-9-7-10-43-11-14-19-21-44-31-2-0
Cost: 1274
0-39-38-35-32-27-28-25-26-24-23-22-18-13-15-17-31-0
0-3-4-6-8-9-7-10-43-11-14-19-21-44-1-2-0
Cost: 1274
0-3-4-6-8-9-7-10-43-11-19-21-44-31-1-2-0
0-39-38-35-32-27-28-25-26-24-23-22-18-13-15-17-14-0
Cost: 1274
0-3-4-6-8-9-7-10-43-11-14-19-21-44-1-2-0
0-39-38-35-32-27-28-25-26-24-23-22-18-13-15-17-31-0
Cost: 1274
0-39-38-35-32-27-28-25-26-24-23-22-18-13-15-17-1-0
0-3-4-6-7-8-9-43-11-10-14-19-21-44-31-2-0
Cost: 1274
0-39-38-35-32-27-28-25-26-24-23-22-18-13-15-17-44-0
0-3-4-6-8-9-7-10-43-11-14-19-21-31-1-2-0
Cost: 1274
0-39-38-35-32-27-28-25-26-24-23-22-18-13-15-17-31-0
0-3-4-6-8-9-7-10-43-11-14-19-21-44-1-2-0
Cost: 1274
0-3-4-6-7-8-9-10-43-11-21-44-31-1-2-0
0-39-38-35-32-27-28-25-26-24-23-22-18-13-15-17-14-19-0
Cost: 1274
0-3-4-6-8-9-7-10-43-11-14-19-21-44-31-2-0
0-39-38-35-32-27-28-25-26-24-23-22-18-13-15-17-1-0
Cost: 1274
0-3-4-6-7-8-9-43-11-10-14-19-21-44-31-1-2-0
0-39-38-35-32-27-28-25-26-24-23-22-18-13-15-17-0
Cost: 1274
0-39-38-35-32-27-28-25-26-24-23-22-18-13-15-17-44-0
0-3-4-6-8-9-7-43-11-10-14-19-21-31-1-2-0
Cost: 1274
0-39-38-35-32-27-28-25-26-24-23-22-18-13-15-17-0
0-3-4-6-8-9-7-43-11-10-14-19-21-44-31-1-2-0
Cost: 1274
0-39-38-35-32-27-28-25-26-24-23-22-18-13-15-17-31-0
0-3-4-6-7-8-9-10-43-11-14-19-21-44-1-2-0
Cost: 1274
0-3-4-6-8-9-7-10-43-11-14-19-21-44-31-1-2-0
0-39-38-35-32-27-28-25-26-24-23-22-18-13-15-17-0
Cost: 1274
0-39-38-35-32-27-28-25-26-24-23-22-18-13-15-17-44-0
0-3-4-6-8-9-7-43-11-10-14-19-21-31-1-2-0
Cost: 1274
0-39-38-35-32-27-28-25-26-24-23-22-18-13-15-17-44-0
0-3-4-6-8-9-7-43-11-10-14-19-21-31-1-2-0
Cost: 1274
0-3-4-6-8-9-7-10-43-11-14-19-21-44-31-1-2-0
0-39-38-35-32-27-28-25-26-24-23-22-18-13-15-17-0
Cost: 1274
0-39-38-35-32-27-28-25-26-24-23-22-18-13-15-17-44-0
0-3-4-6-8-9-7-43-11-10-14-19-21-31-1-2-0
Cost: 1274
0-3-4-6-8-9-7-10-43-11-14-19-21-44-1-2-0
0-39-38-35-32-27-28-25-26-24-23-22-18-13-15-17-31-0
Cost: 1274
0-39-38-35-32-27-28-25-26-24-23-22-18-13-15-17-31-0
0-3-4-6-8-9-7-10-43-11-14-19-21-44-1-2-0
Cost: 1274
0-39-38-35-32-27-28-25-26-24-23-22-18-13-15-17-0
0-3-4-6-8-9-7-10-43-11-14-19-21-44-31-1-2-0
Cost: 1274
0-39-38-35-32-27-28-25-26-24-23-22-18-13-15-17-0
0-3-4-6-8-9-7-10-43-11-14-19-21-44-31-1-2-0
Cost: 1274
0-3-4-6-8-9-7-10-43-11-14-19-21-44-1-2-0
0-39-38-35-32-27-28-25-26-24-23-22-18-13-15-17-31-0
Cost: 1274
0-3-4-6-8-9-7-10-43-11-14-19-21-44-1-2-0
0-39-38-35-32-27-28-25-26-24-23-22-18-13-15-17-31-0
Cost: 1275
0-3-39-35-30-29-22-18-42-23-24-25-26-27-32-36-0
0-4-6-8-9-7-10-12-13-15-17-14-19-21-44-1-2-0
Cost: 1274
0-3-4-6-8-9-7-10-43-11-14-19-21-44-1-2-0
0-39-38-35-32-27-28-25-26-24-23-22-18-13-15-17-31-0
Cost: 1274
0-39-38-35-32-27-28-25-26-24-23-22-18-13-15-17-31-0
0-3-4-6-8-9-7-10-43-11-14-19-21-44-1-2-0
Cost: 1274
0-39-38-35-32-27-28-25-26-24-23-22-18-13-15-17-1-0
0-3-4-6-7-8-9-10-43-11-14-19-21-44-31-2-0
Cost: 1274
0-39-38-35-32-27-28-25-26-24-23-22-18-13-15-17-1-0
0-3-4-6-7-8-9-10-43-11-14-19-21-44-31-2-0
Cost: 1274
0-39-38-35-32-27-28-25-26-24-23-22-18-13-15-17-1-0
0-3-4-6-7-8-9-10-43-11-14-19-21-44-31-2-0
Cost: 1274
0-3-4-6-7-8-9-43-11-10-21-44-31-1-2-0
0-39-38-35-32-27-28-25-26-24-23-22-18-13-15-17-14-19-0
Cost: 1274
0-3-4-6-7-8-9-10-43-11-14-19-21-31-1-2-0
0-39-38-35-32-27-28-25-26-24-23-22-18-13-15-17-44-0
Cost: 1274
0-39-38-35-32-27-28-25-26-24-23-22-18-13-15-17-31-0
0-3-4-6-8-9-7-10-43-11-14-19-21-44-1-2-0
Cost: 1274
0-3-4-6-7-8-9-43-11-10-14-19-21-44-31-2-0
0-39-38-35-32-27-28-25-26-24-23-22-18-13-15-17-1-0
